100
22 87
14 1
7 81
18 23
18 11
13 60
17 12
7 69
21 47
15 58
29 22
8 33
12 4
24 71
28 75
24 0
24 32
15 38
2 61
3 74
14 12
26 38
9 84
3 53
1 51
25 98
12 22
6 93
5 56
21 81
23 55
8 45
24 87
11 53
27 98
0 74
14 14
28 38
22 24
25 33
3 55
8 0
23 15
2 56
7 10
16 55
23 23
10 54
17 89
27 11
27 87
11 49
7 2
28 51
24 31
29 53
13 67
5 69
5 98
19 59
6 15
28 27
21 19
8 48
22 40
29 95
16 49
23 80
3 36
7 81
14 19
9 6
5 39
18 74
5 53
8 99
18 51
11 6
6 59
1 79
17 70
2 83
3 23
19 75
9 99
18 79
25 95
5 57
3 13
26 25
6 20
12 86
2 54
25 95
26 50
21 68
11 53
9 93
10 67
6 40
